17	4	3
12	12	9	9	33	35	20	
0	0	0	0	0	6	9	6	6	4	8	3	2	3	4
8	4	0	0	0	9	1	4	9	7	7	3	5	6	15
2	0	9	0	0	6	5	9	8	3	3	2	7	17
1	0	0	0	5	3	1	2	1	10	1	2	8	13
8	0	9	0	0	7	1	6	5	3	2	3	9	10	14
250	0	10	0	0	10	8	10	6	3	3	1	17
125	0	0	0	6	3	2	4	6	1	10	2	8	13
100	2	0	0	0	3	7	4	1	4	6	3	10	11	16
100	0	0	0	9	3	7	7	5	7	6	2	16	17
125	3	0	0	0	5	4	6	10	9	9	2	17	17
25	0	0	0	2	2	8	6	1	4	9	2	12	17
225	4	0	0	0	4	6	1	7	2	1	2	14	17
10	3	0	0	0	7	4	7	1	5	1	1	17
4	3	0	0	0	6	7	7	3	1	4	1	17
3	0	0	0	8	8	6	7	4	6	5	2	17	17
1	0	0	0	2	2	7	3	8	8	6	1	17
0	0	0	0	0	6	1	2	7	8	3	0
